#pLT is two-dimensional [i,r]=[component, individual]
#[i,*] means all data in row i.

param pLT := 
[1,*]
1  0    2  8    3  5    4  4    5  5    6  8    7  9    8  6    9  8    10 4    
11 8    12 2    

[2,*]
1  2    2  3    3  3    4  3    5  4    6  5    7  3    8  4    9  2    10 4    
11 1    12 4    

[3,*]
1  1    2  2    3  2    4  3    5  4    6  2    7  3    8  2    9  3    10 1    
11 3    12 3    

[4,*]
1  1    2  2    3  3    4  3    5  2    6  3    7  1    8  3    9  1    10 2    
11 3    12 2    

[5,*]
1  1    2  2    3  2    4  1    5  2    6  1    7  2    8  1    9  1    10 2    
11 1    12 1    

[6,*]
1  3    2  6    3  4    4  5    5  2    6  5    7  1    8  4    9  5    10 3    
11 3    12 2    

[7,*]
1  5    2  5    3  7    4  4    5  7    6  2    7  6    8  7    9  4    10 5    
11 4    12 6    

[8,*]
1  1    2  2    3  1    4  2    5  1    6  1    7  2    8  1    9  1    10 1    
11 2    12 1    

[9,*]
1  1    2  1    3  2    4  1    5  1    6  2    7  1    8  1    9  1    10 2    
11 1    12 2    

[10,*]
1  1    2  1    3  1    4  1    5  1    6  1    7  1    8  1    9  1    10 1    
11 1    12 1    
;